Nb of jobs, Nb of Machines, Time seed, Machine seed, Upper bound, Lower bound
5,5,-1,-1,-1,-1
Times
45,37,19,59,31
19,23,46,59,72
4,52,49,30,39
83,40,86,28,67
88,23,3,80,31
Machines
4,2,1,5,3
1,5,4,3,2
4,5,1,3,2
2,5,4,1,3
1,5,4,3,2
